p cnf 200 1110
-101 -97 0
-101 -64 0
-101 71 0
-101 84 0
-101 -51 0
-101 43 0
-101 52 0
-101 29 0
-101 -68 0
-101 -41 0
101 97 64 -71 -84 51 -43 -52 -29 68 41 0
-102 39 0
-102 55 0
-102 27 0
-102 -92 0
-102 -19 0
-102 66 0
-102 -12 0
-102 -77 0
-102 -1 0
-102 59 0
102 -39 -55 -27 92 19 -66 12 77 1 -59 0
-103 -70 0
-103 1 0
-103 -25 0
-103 -4 0
-103 -42 0
-103 -36 0
-103 -30 0
-103 91 0
-103 -3 0
-103 77 0
103 70 -1 25 4 42 36 30 -91 3 -77 0
-104 78 0
-104 83 0
-104 42 0
-104 79 0
-104 53 0
-104 -68 0
-104 -89 0
-104 3 0
-104 49 0
-104 -90 0
104 -78 -83 -42 -79 -53 68 89 -3 -49 90 0
-105 89 0
-105 72 0
-105 -85 0
-105 67 0
-105 -46 0
-105 -54 0
-105 60 0
-105 78 0
-105 28 0
-105 -48 0
105 -89 -72 85 -67 46 54 -60 -78 -28 48 0
-106 -35 0
-106 -12 0
-106 -41 0
-106 -47 0
-106 -44 0
-106 55 0
-106 -51 0
-106 -39 0
-106 68 0
-106 3 0
106 35 12 41 47 44 -55 51 39 -68 -3 0
-107 -32 0
-107 53 0
-107 -98 0
-107 51 0
-107 45 0
-107 33 0
-107 76 0
-107 -70 0
-107 13 0
-107 -75 0
107 32 -53 98 -51 -45 -33 -76 70 -13 75 0
-108 30 0
-108 -32 0
-108 53 0
-108 -72 0
-108 -87 0
-108 92 0
-108 -80 0
-108 -95 0
-108 -29 0
-108 73 0
108 -30 32 -53 72 87 -92 80 95 29 -73 0
-109 46 0
-109 -22 0
-109 23 0
-109 94 0
-109 91 0
-109 60 0
-109 16 0
-109 36 0
-109 -98 0
-109 -66 0
109 -46 22 -23 -94 -91 -60 -16 -36 98 66 0
-110 50 0
-110 93 0
-110 79 0
-110 100 0
-110 -42 0
-110 -36 0
-110 -99 0
-110 -11 0
-110 -56 0
-110 53 0
110 -50 -93 -79 -100 42 36 99 11 56 -53 0
101 102 103 104 105 106 107 108 109 110 0
-111 -35 0
-111 -5 0
-111 -44 0
-111 -20 0
-111 70 0
-111 11 0
-111 68 0
-111 -19 0
-111 3 0
-111 -18 0
111 35 5 44 20 -70 -11 -68 19 -3 18 0
-112 -13 0
-112 -14 0
-112 -73 0
-112 -38 0
-112 50 0
-112 46 0
-112 26 0
-112 -80 0
-112 81 0
-112 -4 0
112 13 14 73 38 -50 -46 -26 80 -81 4 0
-113 43 0
-113 -48 0
-113 30 0
-113 61 0
-113 97 0
-113 23 0
-113 -75 0
-113 -51 0
-113 -52 0
-113 40 0
113 -43 48 -30 -61 -97 -23 75 51 52 -40 0
-114 3 0
-114 39 0
-114 -8 0
-114 -84 0
-114 -41 0
-114 -98 0
-114 -4 0
-114 -59 0
-114 -64 0
-114 66 0
114 -3 -39 8 84 41 98 4 59 64 -66 0
-115 21 0
-115 22 0
-115 13 0
-115 -68 0
-115 -46 0
-115 -52 0
-115 -18 0
-115 -97 0
-115 30 0
-115 -7 0
115 -21 -22 -13 68 46 52 18 97 -30 7 0
-116 -87 0
-116 -63 0
-116 -91 0
-116 -94 0
-116 48 0
-116 -74 0
-116 -27 0
-116 2 0
-116 56 0
-116 77 0
116 87 63 91 94 -48 74 27 -2 -56 -77 0
-117 -62 0
-117 -7 0
-117 97 0
-117 44 0
-117 -68 0
-117 10 0
-117 -79 0
-117 -70 0
-117 2 0
-117 -50 0
117 62 7 -97 -44 68 -10 79 70 -2 50 0
-118 100 0
-118 -42 0
-118 -58 0
-118 -41 0
-118 62 0
-118 27 0
-118 61 0
-118 49 0
-118 26 0
-118 97 0
118 -100 42 58 41 -62 -27 -61 -49 -26 -97 0
-119 74 0
-119 -61 0
-119 -17 0
-119 -23 0
-119 -77 0
-119 55 0
-119 91 0
-119 97 0
-119 -3 0
-119 -9 0
119 -74 61 17 23 77 -55 -91 -97 3 9 0
-120 -25 0
-120 45 0
-120 42 0
-120 30 0
-120 -32 0
-120 91 0
-120 -47 0
-120 68 0
-120 41 0
-120 71 0
120 25 -45 -42 -30 32 -91 47 -68 -41 -71 0
111 112 113 114 115 116 117 118 119 120 0
-121 50 0
-121 -46 0
-121 47 0
-121 -75 0
-121 -67 0
-121 -16 0
-121 -76 0
-121 -65 0
-121 40 0
-121 98 0
121 -50 46 -47 75 67 16 76 65 -40 -98 0
-122 41 0
-122 -76 0
-122 61 0
-122 -51 0
-122 -58 0
-122 -67 0
-122 96 0
-122 -49 0
-122 89 0
-122 -2 0
122 -41 76 -61 51 58 67 -96 49 -89 2 0
-123 50 0
-123 64 0
-123 -94 0
-123 92 0
-123 -75 0
-123 -7 0
-123 97 0
-123 20 0
-123 -90 0
-123 -72 0
123 -50 -64 94 -92 75 7 -97 -20 90 72 0
-124 -96 0
-124 90 0
-124 -40 0
-124 -46 0
-124 -68 0
-124 -17 0
-124 52 0
-124 82 0
-124 -36 0
-124 -9 0
124 96 -90 40 46 68 17 -52 -82 36 9 0
-125 -94 0
-125 -5 0
-125 -39 0
-125 67 0
-125 85 0
-125 81 0
-125 57 0
-125 29 0
-125 26 0
-125 -37 0
125 94 5 39 -67 -85 -81 -57 -29 -26 37 0
-126 -63 0
-126 1 0
-126 80 0
-126 -96 0
-126 -44 0
-126 74 0
-126 16 0
-126 -10 0
-126 -68 0
-126 -4 0
126 63 -1 -80 96 44 -74 -16 10 68 4 0
-127 20 0
-127 92 0
-127 73 0
-127 -3 0
-127 90 0
-127 54 0
-127 53 0
-127 -37 0
-127 -95 0
-127 4 0
127 -20 -92 -73 3 -90 -54 -53 37 95 -4 0
-128 -5 0
-128 -69 0
-128 94 0
-128 71 0
-128 -58 0
-128 -72 0
-128 -84 0
-128 -63 0
-128 -100 0
-128 4 0
128 5 69 -94 -71 58 72 84 63 100 -4 0
-129 67 0
-129 89 0
-129 12 0
-129 -45 0
-129 -49 0
-129 87 0
-129 -15 0
-129 22 0
-129 -91 0
-129 88 0
129 -67 -89 -12 45 49 -87 15 -22 91 -88 0
-130 -99 0
-130 -10 0
-130 -21 0
-130 87 0
-130 90 0
-130 -69 0
-130 -38 0
-130 -77 0
-130 24 0
-130 34 0
130 99 10 21 -87 -90 69 38 77 -24 -34 0
121 122 123 124 125 126 127 128 129 130 0
-131 -32 0
-131 49 0
-131 -27 0
-131 18 0
-131 -56 0
-131 -42 0
-131 -40 0
-131 50 0
-131 100 0
-131 -92 0
131 32 -49 27 -18 56 42 40 -50 -100 92 0
-132 -57 0
-132 77 0
-132 58 0
-132 -30 0
-132 -40 0
-132 -25 0
-132 -76 0
-132 26 0
-132 1 0
-132 67 0
132 57 -77 -58 30 40 25 76 -26 -1 -67 0
-133 9 0
-133 14 0
-133 -50 0
-133 30 0
-133 -84 0
-133 33 0
-133 81 0
-133 52 0
-133 -58 0
-133 88 0
133 -9 -14 50 -30 84 -33 -81 -52 58 -88 0
-134 -47 0
-134 37 0
-134 -6 0
-134 30 0
-134 -57 0
-134 90 0
-134 84 0
-134 82 0
-134 17 0
-134 -7 0
134 47 -37 6 -30 57 -90 -84 -82 -17 7 0
-135 93 0
-135 -54 0
-135 41 0
-135 95 0
-135 87 0
-135 55 0
-135 -89 0
-135 14 0
-135 90 0
-135 -85 0
135 -93 54 -41 -95 -87 -55 89 -14 -90 85 0
-136 -77 0
-136 -18 0
-136 8 0
-136 90 0
-136 -48 0
-136 -24 0
-136 82 0
-136 -100 0
-136 -52 0
-136 -85 0
136 77 18 -8 -90 48 24 -82 100 52 85 0
-137 46 0
-137 -96 0
-137 -48 0
-137 7 0
-137 74 0
-137 11 0
-137 95 0
-137 -15 0
-137 -99 0
-137 -5 0
137 -46 96 48 -7 -74 -11 -95 15 99 5 0
-138 -28 0
-138 -98 0
-138 84 0
-138 -54 0
-138 -30 0
-138 -82 0
-138 70 0
-138 44 0
-138 6 0
-138 -20 0
138 28 98 -84 54 30 82 -70 -44 -6 20 0
-139 -32 0
-139 -92 0
-139 -10 0
-139 1 0
-139 90 0
-139 -85 0
-139 78 0
-139 -7 0
-139 -51 0
-139 -6 0
139 32 92 10 -1 -90 85 -78 7 51 6 0
-140 27 0
-140 -31 0
-140 32 0
-140 -9 0
-140 93 0
-140 62 0
-140 -8 0
-140 4 0
-140 -14 0
-140 13 0
140 -27 31 -32 9 -93 -62 8 -4 14 -13 0
131 132 133 134 135 136 137 138 139 140 0
-141 -79 0
-141 94 0
-141 -57 0
-141 77 0
-141 73 0
-141 -40 0
-141 -42 0
-141 2 0
-141 66 0
-141 80 0
141 79 -94 57 -77 -73 40 42 -2 -66 -80 0
-142 8 0
-142 -13 0
-142 -2 0
-142 -14 0
-142 23 0
-142 -52 0
-142 -87 0
-142 66 0
-142 -33 0
-142 -59 0
142 -8 13 2 14 -23 52 87 -66 33 59 0
-143 55 0
-143 -18 0
-143 -94 0
-143 -61 0
-143 88 0
-143 -64 0
-143 -51 0
-143 82 0
-143 19 0
-143 -34 0
143 -55 18 94 61 -88 64 51 -82 -19 34 0
-144 85 0
-144 -52 0
-144 -67 0
-144 82 0
-144 40 0
-144 -12 0
-144 65 0
-144 -28 0
-144 -45 0
-144 71 0
144 -85 52 67 -82 -40 12 -65 28 45 -71 0
-145 -63 0
-145 -81 0
-145 -78 0
-145 64 0
-145 55 0
-145 -40 0
-145 79 0
-145 -85 0
-145 -87 0
-145 -39 0
145 63 81 78 -64 -55 40 -79 85 87 39 0
-146 17 0
-146 91 0
-146 -47 0
-146 -64 0
-146 -92 0
-146 -77 0
-146 44 0
-146 33 0
-146 -62 0
-146 -37 0
146 -17 -91 47 64 92 77 -44 -33 62 37 0
-147 13 0
-147 82 0
-147 94 0
-147 -21 0
-147 42 0
-147 -91 0
-147 -84 0
-147 61 0
-147 -27 0
-147 -48 0
147 -13 -82 -94 21 -42 91 84 -61 27 48 0
-148 93 0
-148 70 0
-148 -87 0
-148 59 0
-148 57 0
-148 12 0
-148 38 0
-148 66 0
-148 95 0
-148 -21 0
148 -93 -70 87 -59 -57 -12 -38 -66 -95 21 0
-149 -81 0
-149 19 0
-149 -41 0
-149 29 0
-149 15 0
-149 45 0
-149 -46 0
-149 31 0
-149 95 0
-149 -38 0
149 81 -19 41 -29 -15 -45 46 -31 -95 38 0
-150 -73 0
-150 26 0
-150 -82 0
-150 21 0
-150 13 0
-150 -11 0
-150 -12 0
-150 55 0
-150 80 0
-150 95 0
150 73 -26 82 -21 -13 11 12 -55 -80 -95 0
141 142 143 144 145 146 147 148 149 150 0
-151 16 0
-151 57 0
-151 -49 0
-151 -83 0
-151 60 0
-151 -50 0
-151 -39 0
-151 -75 0
-151 -86 0
-151 -91 0
151 -16 -57 49 83 -60 50 39 75 86 91 0
-152 -69 0
-152 -49 0
-152 -38 0
-152 32 0
-152 98 0
-152 -77 0
-152 -67 0
-152 87 0
-152 -82 0
-152 29 0
152 69 49 38 -32 -98 77 67 -87 82 -29 0
-153 66 0
-153 -12 0
-153 57 0
-153 19 0
-153 -62 0
-153 5 0
-153 -41 0
-153 -67 0
-153 64 0
-153 -29 0
153 -66 12 -57 -19 62 -5 41 67 -64 29 0
-154 -30 0
-154 -23 0
-154 -54 0
-154 -13 0
-154 -78 0
-154 87 0
-154 -49 0
-154 -33 0
-154 88 0
-154 95 0
154 30 23 54 13 78 -87 49 33 -88 -95 0
-155 -37 0
-155 -33 0
-155 90 0
-155 2 0
-155 34 0
-155 35 0
-155 89 0
-155 86 0
-155 -62 0
-155 76 0
155 37 33 -90 -2 -34 -35 -89 -86 62 -76 0
-156 41 0
-156 1 0
-156 -15 0
-156 28 0
-156 59 0
-156 19 0
-156 99 0
-156 -29 0
-156 60 0
-156 46 0
156 -41 -1 15 -28 -59 -19 -99 29 -60 -46 0
-157 43 0
-157 -64 0
-157 -41 0
-157 -84 0
-157 -94 0
-157 9 0
-157 7 0
-157 57 0
-157 73 0
-157 -36 0
157 -43 64 41 84 94 -9 -7 -57 -73 36 0
-158 78 0
-158 52 0
-158 -87 0
-158 -99 0
-158 -16 0
-158 -92 0
-158 24 0
-158 -37 0
-158 -40 0
-158 17 0
158 -78 -52 87 99 16 92 -24 37 40 -17 0
-159 48 0
-159 18 0
-159 16 0
-159 -93 0
-159 -42 0
-159 15 0
-159 -62 0
-159 -73 0
-159 -38 0
-159 4 0
159 -48 -18 -16 93 42 -15 62 73 38 -4 0
-160 -72 0
-160 36 0
-160 97 0
-160 -30 0
-160 -69 0
-160 31 0
-160 -61 0
-160 100 0
-160 -89 0
-160 -25 0
160 72 -36 -97 30 69 -31 61 -100 89 25 0
151 152 153 154 155 156 157 158 159 160 0
-161 -98 0
-161 -64 0
-161 81 0
-161 27 0
-161 61 0
-161 62 0
-161 -6 0
-161 -45 0
-161 -30 0
-161 59 0
161 98 64 -81 -27 -61 -62 6 45 30 -59 0
-162 -72 0
-162 -54 0
-162 94 0
-162 -75 0
-162 -50 0
-162 95 0
-162 -1 0
-162 -3 0
-162 -28 0
-162 -32 0
162 72 54 -94 75 50 -95 1 3 28 32 0
-163 67 0
-163 -82 0
-163 31 0
-163 -76 0
-163 -98 0
-163 46 0
-163 34 0
-163 -23 0
-163 -12 0
-163 -38 0
163 -67 82 -31 76 98 -46 -34 23 12 38 0
-164 -49 0
-164 -11 0
-164 88 0
-164 -38 0
-164 10 0
-164 93 0
-164 26 0
-164 36 0
-164 72 0
-164 95 0
164 49 11 -88 38 -10 -93 -26 -36 -72 -95 0
-165 -41 0
-165 -11 0
-165 33 0
-165 -93 0
-165 -30 0
-165 76 0
-165 37 0
-165 -94 0
-165 96 0
-165 67 0
165 41 11 -33 93 30 -76 -37 94 -96 -67 0
-166 -3 0
-166 42 0
-166 88 0
-166 -96 0
-166 45 0
-166 -11 0
-166 -71 0
-166 44 0
-166 90 0
-166 -9 0
166 3 -42 -88 96 -45 11 71 -44 -90 9 0
-167 60 0
-167 -82 0
-167 40 0
-167 83 0
-167 -81 0
-167 68 0
-167 56 0
-167 86 0
-167 98 0
-167 42 0
167 -60 82 -40 -83 81 -68 -56 -86 -98 -42 0
-168 34 0
-168 -74 0
-168 64 0
-168 27 0
-168 -63 0
-168 94 0
-168 73 0
-168 -25 0
-168 -41 0
-168 95 0
168 -34 74 -64 -27 63 -94 -73 25 41 -95 0
-169 86 0
-169 -10 0
-169 -47 0
-169 9 0
-169 99 0
-169 97 0
-169 -48 0
-169 -31 0
-169 59 0
-169 25 0
169 -86 10 47 -9 -99 -97 48 31 -59 -25 0
-170 62 0
-170 -93 0
-170 -42 0
-170 -99 0
-170 -8 0
-170 21 0
-170 16 0
-170 -78 0
-170 -66 0
-170 64 0
170 -62 93 42 99 8 -21 -16 78 66 -64 0
161 162 163 164 165 166 167 168 169 170 0
-171 -84 0
-171 -70 0
-171 65 0
-171 81 0
-171 -58 0
-171 -92 0
-171 -61 0
-171 71 0
-171 29 0
-171 -27 0
171 84 70 -65 -81 58 92 61 -71 -29 27 0
-172 -31 0
-172 -65 0
-172 -55 0
-172 82 0
-172 96 0
-172 94 0
-172 -40 0
-172 87 0
-172 11 0
-172 46 0
172 31 65 55 -82 -96 -94 40 -87 -11 -46 0
-173 -79 0
-173 50 0
-173 31 0
-173 61 0
-173 -42 0
-173 27 0
-173 -56 0
-173 84 0
-173 95 0
-173 14 0
173 79 -50 -31 -61 42 -27 56 -84 -95 -14 0
-174 -86 0
-174 45 0
-174 -63 0
-174 32 0
-174 -60 0
-174 66 0
-174 -9 0
-174 1 0
-174 -68 0
-174 -82 0
174 86 -45 63 -32 60 -66 9 -1 68 82 0
-175 -65 0
-175 50 0
-175 -21 0
-175 -85 0
-175 -15 0
-175 9 0
-175 -14 0
-175 34 0
-175 -99 0
-175 93 0
175 65 -50 21 85 15 -9 14 -34 99 -93 0
-176 22 0
-176 43 0
-176 -79 0
-176 45 0
-176 100 0
-176 -87 0
-176 -58 0
-176 -82 0
-176 -78 0
-176 -73 0
176 -22 -43 79 -45 -100 87 58 82 78 73 0
-177 73 0
-177 -11 0
-177 -59 0
-177 31 0
-177 93 0
-177 30 0
-177 -43 0
-177 64 0
-177 -42 0
-177 -98 0
177 -73 11 59 -31 -93 -30 43 -64 42 98 0
-178 99 0
-178 -14 0
-178 48 0
-178 8 0
-178 -51 0
-178 90 0
-178 70 0
-178 -36 0
-178 50 0
-178 6 0
178 -99 14 -48 -8 51 -90 -70 36 -50 -6 0
-179 92 0
-179 11 0
-179 41 0
-179 -70 0
-179 62 0
-179 76 0
-179 -17 0
-179 -18 0
-179 -20 0
-179 100 0
179 -92 -11 -41 70 -62 -76 17 18 20 -100 0
-180 -44 0
-180 15 0
-180 -9 0
-180 -92 0
-180 -21 0
-180 51 0
-180 82 0
-180 79 0
-180 -70 0
-180 -11 0
180 44 -15 9 92 21 -51 -82 -79 70 11 0
171 172 173 174 175 176 177 178 179 180 0
-181 42 0
-181 -90 0
-181 -74 0
-181 -61 0
-181 -79 0
-181 49 0
-181 -30 0
-181 62 0
-181 -31 0
-181 35 0
181 -42 90 74 61 79 -49 30 -62 31 -35 0
-182 -71 0
-182 84 0
-182 59 0
-182 12 0
-182 27 0
-182 52 0
-182 -58 0
-182 -81 0
-182 -77 0
-182 -4 0
182 71 -84 -59 -12 -27 -52 58 81 77 4 0
-183 80 0
-183 25 0
-183 88 0
-183 70 0
-183 -64 0
-183 -2 0
-183 11 0
-183 -98 0
-183 -57 0
-183 -26 0
183 -80 -25 -88 -70 64 2 -11 98 57 26 0
-184 -2 0
-184 5 0
-184 6 0
-184 -88 0
-184 1 0
-184 -94 0
-184 -98 0
-184 -70 0
-184 -29 0
-184 -69 0
184 2 -5 -6 88 -1 94 98 70 29 69 0
-185 -88 0
-185 -23 0
-185 -72 0
-185 -24 0
-185 96 0
-185 -20 0
-185 -66 0
-185 -8 0
-185 21 0
-185 -11 0
185 88 23 72 24 -96 20 66 8 -21 11 0
-186 -92 0
-186 -74 0
-186 65 0
-186 5 0
-186 62 0
-186 -60 0
-186 36 0
-186 89 0
-186 -54 0
-186 -75 0
186 92 74 -65 -5 -62 60 -36 -89 54 75 0
-187 -83 0
-187 88 0
-187 -39 0
-187 -76 0
-187 -8 0
-187 -22 0
-187 -53 0
-187 -97 0
-187 -80 0
-187 -40 0
187 83 -88 39 76 8 22 53 97 80 40 0
-188 73 0
-188 -42 0
-188 43 0
-188 46 0
-188 -31 0
-188 -10 0
-188 -60 0
-188 27 0
-188 30 0
-188 -93 0
188 -73 42 -43 -46 31 10 60 -27 -30 93 0
-189 47 0
-189 45 0
-189 -99 0
-189 -1 0
-189 96 0
-189 32 0
-189 -12 0
-189 -11 0
-189 75 0
-189 -44 0
189 -47 -45 99 1 -96 -32 12 11 -75 44 0
-190 -8 0
-190 -13 0
-190 79 0
-190 41 0
-190 -73 0
-190 84 0
-190 49 0
-190 88 0
-190 89 0
-190 -61 0
190 8 13 -79 -41 73 -84 -49 -88 -89 61 0
181 182 183 184 185 186 187 188 189 190 0
-191 92 0
-191 46 0
-191 58 0
-191 85 0
-191 -49 0
-191 -30 0
-191 -21 0
-191 4 0
-191 24 0
-191 -95 0
191 -92 -46 -58 -85 49 30 21 -4 -24 95 0
-192 3 0
-192 -97 0
-192 4 0
-192 -67 0
-192 -42 0
-192 -82 0
-192 -83 0
-192 -57 0
-192 -66 0
-192 40 0
192 -3 97 -4 67 42 82 83 57 66 -40 0
-193 33 0
-193 59 0
-193 -45 0
-193 53 0
-193 -49 0
-193 -98 0
-193 -14 0
-193 -48 0
-193 -22 0
-193 31 0
193 -33 -59 45 -53 49 98 14 48 22 -31 0
-194 -28 0
-194 -5 0
-194 63 0
-194 41 0
-194 85 0
-194 43 0
-194 -33 0
-194 42 0
-194 66 0
-194 -98 0
194 28 5 -63 -41 -85 -43 33 -42 -66 98 0
-195 63 0
-195 89 0
-195 35 0
-195 21 0
-195 -24 0
-195 87 0
-195 33 0
-195 75 0
-195 30 0
-195 40 0
195 -63 -89 -35 -21 24 -87 -33 -75 -30 -40 0
-196 21 0
-196 47 0
-196 79 0
-196 44 0
-196 64 0
-196 -29 0
-196 43 0
-196 32 0
-196 -2 0
-196 -40 0
196 -21 -47 -79 -44 -64 29 -43 -32 2 40 0
-197 -11 0
-197 -68 0
-197 -77 0
-197 -36 0
-197 62 0
-197 -17 0
-197 49 0
-197 -47 0
-197 7 0
-197 81 0
197 11 68 77 36 -62 17 -49 47 -7 -81 0
-198 63 0
-198 -74 0
-198 -60 0
-198 -55 0
-198 -32 0
-198 -30 0
-198 10 0
-198 -46 0
-198 -88 0
-198 69 0
198 -63 74 60 55 32 30 -10 46 88 -69 0
-199 -15 0
-199 -19 0
-199 5 0
-199 96 0
-199 34 0
-199 -77 0
-199 99 0
-199 71 0
-199 -40 0
-199 -58 0
199 15 19 -5 -96 -34 77 -99 -71 40 58 0
-200 -51 0
-200 62 0
-200 58 0
-200 25 0
-200 66 0
-200 -9 0
-200 -59 0
-200 -68 0
-200 -33 0
-200 -13 0
200 51 -62 -58 -25 -66 9 59 68 33 13 0
191 192 193 194 195 196 197 198 199 200 0
